131315.89
196 195 194 72 70 71 192 191 193 93 94 95 96 97 220 222 223 221 219 218 217 216 215 214 213 92 91 90 89 88 190 189 188 67 66 65 64 63 165 164 163 42 41 40 39 38 140 139 138 17 16 15 14 13 113 114 115 116 117 118 19 18 119 120 121 122 123 124 125 127 128 126 23 24 25 26 27 150 151 152 153 154 155 32 31 30 29 28 129 130 131 132 133 134 135 136 137 33 34 35 36 37 162 59 60 58 161 160 159 158 157 156 53 54 55 56 57 181 180 179 178 177 176 175 52 51 50 49 48 149 148 147 146 145 21 20 22 142 141 143 144 43 44 45 46 47 167 166 168 68 69 169 170 171 172 173 174 73 74 75 76 77 201 202 203 204 205 104 105 103 206 208 209 207 82 81 80 79 78 182 183 184 185 186 61 62 187 83 84 85 86 87 210 211 212 108 109 110 111 112 12 11 10 9 8 7 106 107 6 5 4 3 2 1 0 224 102 101 100 99 98 200 199 198 197